1 3 100 243021.78
1 3 200 250572.41
1 3 300 252982.39
2 3 100 327864.27
2 3 200 319565.59
2 3 300 340234.41
3 3 100 338118.04
3 3 200 350639.63
3 3 300 352343.51
4 3 100 341711.72
4 3 200 349307.19
4 3 300 358642.63
5 3 100 332695.21
5 3 200 344724.56
5 3 300 339294.67
